% Data for perfect square placement problem:
% http://www.hakank.org/minizinc/perfect_square_placement.mzn
% Data is originally from CSPLib:
% http://www.cs.st-andrews.ac.uk/~ianm/CSPLib/prob/prob009/results

% problem 33 
n = 288;
size = 24;
a = [2,7,9,10,15,16,17,18,22,23,25,28,36,39,42,56,57,60,68,72,73,87,129,159];

